c File: instances/34_0.15_1.col
c
c Description: Random graph of size 34 vertices and P(0.15000000000000002) of edges between any two vertices.
p col 34 561
e 1 6
e 1 8
e 1 12
e 1 21
e 1 33
e 1 34
e 2 12
e 2 14
e 2 20
e 2 30
e 3 7
e 3 15
e 3 19
e 3 28
e 4 19
e 4 30
e 5 10
e 5 13
e 5 20
e 5 24
e 5 27
e 5 34
e 6 8
e 6 17
e 6 32
e 7 16
e 7 31
e 7 34
e 8 9
e 8 10
e 8 13
e 8 19
e 8 21
e 8 23
e 8 28
e 8 34
e 9 17
e 9 18
e 9 20
e 9 32
e 10 19
e 10 22
e 10 25
e 10 29
e 10 31
e 10 33
e 11 16
e 11 21
e 11 31
e 12 13
e 12 30
e 13 21
e 13 23
e 13 26
e 14 21
e 14 24
e 14 27
e 14 28
e 14 29
e 14 34
e 15 21
e 15 22
e 15 24
e 15 29
e 17 23
e 17 31
e 18 20
e 18 26
e 18 27
e 19 33
e 20 25
e 21 29
e 22 23
e 22 30
e 22 31
e 23 26
e 23 29
e 23 30
e 23 31
e 25 26
e 25 32
e 26 32
e 26 33
e 29 33
e 29 34
e 30 34
e 31 32